proyfinal/src/viki/013/experimentInOfficeAgust.take6.output/14f12352-6bb4-4cf5-b39d-0b149d84e49a.als.out
Reading from standard input... Use '--help' for help.
============================[ Problem Statistics ]=============================
|                                                                             |
|  Number of variables:         87638                                         |
|  Number of clauses:          161767                                         |
|  Parse time:                   0.04 s                                       |
|                                                                             |
============================[ Search Statistics ]==============================
| Conflicts |          ORIGINAL         |          LEARNT          | Progress |
|           |    Vars  Clauses Literals |    Limit  Clauses Lit/Cl |          |
===============================================================================
|       100 |   63050   107610   269124 |    39457       99     39 | 28.056 % |
|       250 |   63050   107566   269034 |    43402      249     29 | 28.056 % |
|       475 |   63050   107566   269034 |    47742      474     67 | 28.056 % |
|       812 |   44087    51215   130554 |    52517      679     49 | 49.694 % |
|      1318 |   44087    51215   130554 |    57768     1185     45 | 49.694 % |
|      2077 |   44087    51215   130554 |    63545     1944     38 | 49.694 % |
===============================================================================
restarts              : 15
conflicts             : 2620           (10496 /sec)
decisions             : 10169          (0.00 % random) (40738 /sec)
propagations          : 3529249        (14138486 /sec)
conflict literals     : 109585         (36.64 % deleted)
Memory used           : 25.85 MB
CPU time              : 0.24962 s

UNSATISFIABLE
